benchmark_instances/dzn_benchmark_instances/benchmark_instance_8-2.dzn
% Input: sequence of points
seq_points = [|1,1
              |2,1
              |4,1
              |5,1
              |6,1
              |7,1
              |2,2
              |6,2
              |7,2
              |1,3
              |7,3
              |2,4
              |6,4
              |2,5
              |4,5
              |6,5
              |7,5
              |3,6
              |4,6
              |3,7
              |4,7
              |4,0
              |5,0
              |8,0
              |8,2
              |8,5
              |4,8
              |8,8
              |0,5
              |0,0
             |];

num_points = 30;
