benchmark_instances/lp_benchmark_instances/benchmark_instance_8-2.lp
% Input: sequence of points
point(1,1).
point(2,1).
point(4,1).
point(5,1).
point(6,1).
point(7,1).
point(2,2).
point(6,2).
point(7,2).
point(1,3).
point(7,3).
point(2,4).
point(6,4).
point(2,5).
point(4,5).
point(6,5).
point(7,5).
point(3,6).
point(4,6).
point(3,7).
point(4,7).
point(4,0).
point(5,0).
point(8,0).
point(8,2).
point(8,5).
point(4,8).
point(8,8).
point(0,5).
point(0,0).
